c ren 2 -> 1
c ren 4 -> 2
c ren 5 -> 3
c ren 6 -> 4
c ren 7 -> 5
c ren 8 -> 6
c ren 9 -> 7
c ren 10 -> 8
c ren 11 -> 9
c ren 12 -> 10
c ren 13 -> 11
c ren 14 -> 12
c ren 15 -> 13
c ren 16 -> 14
c ren 17 -> 15
c ren 18 -> 16
c ren 19 -> 17
c ren 20 -> 18
c ren 22 -> 19
c ren 23 -> 20
c ren 24 -> 21
c ren 27 -> 22
c ren 28 -> 23
c ren 29 -> 24
c ren 32 -> 25
c ren 37 -> 26
c ren 38 -> 27
c ren 40 -> 28
c ren 41 -> 29
c ren 43 -> 30
c ren 50 -> 31
c ren 51 -> 32
c ren 56 -> 33
c ren 61 -> 34
c ren 64 -> 35
c ren 69 -> 36
c ren 72 -> 37
c ren 81 -> 38
c ren 92 -> 39
c ren 103 -> 40
c ren 115 -> 41
c ren 138 -> 42
c ren 167 -> 43
p cnf 43 86
a 18 0
e 22 28 0
a 1 2 3 4 5 6 7 8 9 10 11 13 15 16 17 19 20 0
e 12 14 21 23 24 25 26 27 29 30 31 32 33 34 35 36 37 38 39 40 41 42 43 0
-3 12 18 0
-17 -28 33 0
2 3 4 -18 26 0
1 -9 -15 16 -29 0
-2 12 18 0
-1 15 16 -30 0
-7 14 0
-4 12 18 0
-4 18 41 0
-5 14 0
1 -13 18 -19 20 -38 -39 40 0
-2 20 42 0
-2 -12 -14 15 16 19 -42 -43 0
-4 20 23 0
2 3 4 -20 37 0
1 5 6 7 8 13 18 19 20 -21 29 0
-4 20 37 0
-17 -22 43 0
-17 -22 38 0
-5 34 0
1 -10 -15 16 -40 0
-6 34 0
-6 14 0
-17 25 -28 0
1 2 30 -32 -34 -35 -36 -37 0
-17 -22 35 0
17 22 35 0
-8 14 0
-4 20 42 0
1 9 10 -11 -15 -16 -30 0
17 22 38 0
17 22 43 0
1 -13 -19 36 0
-5 39 0
-6 39 0
-8 34 0
-7 34 0
-2 18 32 0
-2 20 37 0
-1 19 36 0
-4 18 26 0
-1 19 24 0
2 3 4 -18 32 0
1 5 6 7 8 -13 18 -19 20 -21 29 0
1 -10 -15 16 -29 0
1 11 -15 16 -30 0
-2 18 26 0
1 11 -15 16 -27 0
-7 39 0
-4 20 31 0
-2 18 41 0
1 -10 -15 16 -27 0
-3 20 37 0
-3 18 41 0
1 -9 -15 16 -27 0
1 9 10 -11 -15 -16 -29 0
-3 20 42 0
-1 -2 30 -32 -34 -35 -36 -37 0
1 -13 -19 24 0
1 11 -15 16 -40 0
13 19 24 0
1 13 18 19 20 -38 -39 40 0
-2 20 23 0
1 11 -15 16 -29 0
-1 15 16 -27 0
17 28 33 0
-2 20 31 0
2 3 4 -20 23 0
-4 18 32 0
1 -9 -15 16 -40 0
-1 -2 5 6 7 8 -23 -24 -25 -26 27 0
1 9 10 -11 -15 -16 -27 0
17 25 28 0
17 21 28 0
-3 20 31 0
-8 39 0
-3 20 23 0
-3 18 26 0
1 -10 -15 16 -30 0
-3 18 32 0
13 19 36 0
-17 21 -28 0
-2 5 6 7 8 15 16 19 -31 -33 -41 0
1 9 10 -11 -15 -16 -40 0
1 2 5 6 7 8 -23 -24 -25 -26 27 0
1 -9 -15 16 -30 0
